c File: flat50_3_0.col
c
c SOURCE: Joseph Culberson (joe@cs.ualberta.ca)
c DESCRIPTION: Quasi-random coloring problem
c              generated with flatness = 0
c                             probability = 0.139
c                             known coloring = 3
c                             random seed = 1686
c              Creation Date:  Tue Jun  9 12:15:23 1998
c Maximum degree = 8 Minimum degree = 1
c p edge 50 115
c cnf created by edge2cnf
p cnf 150 545
-1 -2 0
-1 -3 0
-2 -3 0
1 2 3 0
-4 -5 0
-4 -6 0
-5 -6 0
4 5 6 0
-7 -8 0
-7 -9 0
-8 -9 0
7 8 9 0
-10 -11 0
-10 -12 0
-11 -12 0
10 11 12 0
-13 -14 0
-13 -15 0
-14 -15 0
13 14 15 0
-16 -17 0
-16 -18 0
-17 -18 0
16 17 18 0
-19 -20 0
-19 -21 0
-20 -21 0
19 20 21 0
-22 -23 0
-22 -24 0
-23 -24 0
22 23 24 0
-25 -26 0
-25 -27 0
-26 -27 0
25 26 27 0
-28 -29 0
-28 -30 0
-29 -30 0
28 29 30 0
-31 -32 0
-31 -33 0
-32 -33 0
31 32 33 0
-34 -35 0
-34 -36 0
-35 -36 0
34 35 36 0
-37 -38 0
-37 -39 0
-38 -39 0
37 38 39 0
-40 -41 0
-40 -42 0
-41 -42 0
40 41 42 0
-43 -44 0
-43 -45 0
-44 -45 0
43 44 45 0
-46 -47 0
-46 -48 0
-47 -48 0
46 47 48 0
-49 -50 0
-49 -51 0
-50 -51 0
49 50 51 0
-52 -53 0
-52 -54 0
-53 -54 0
52 53 54 0
-55 -56 0
-55 -57 0
-56 -57 0
55 56 57 0
-58 -59 0
-58 -60 0
-59 -60 0
58 59 60 0
-61 -62 0
-61 -63 0
-62 -63 0
61 62 63 0
-64 -65 0
-64 -66 0
-65 -66 0
64 65 66 0
-67 -68 0
-67 -69 0
-68 -69 0
67 68 69 0
-70 -71 0
-70 -72 0
-71 -72 0
70 71 72 0
-73 -74 0
-73 -75 0
-74 -75 0
73 74 75 0
-76 -77 0
-76 -78 0
-77 -78 0
76 77 78 0
-79 -80 0
-79 -81 0
-80 -81 0
79 80 81 0
-82 -83 0
-82 -84 0
-83 -84 0
82 83 84 0
-85 -86 0
-85 -87 0
-86 -87 0
85 86 87 0
-88 -89 0
-88 -90 0
-89 -90 0
88 89 90 0
-91 -92 0
-91 -93 0
-92 -93 0
91 92 93 0
-94 -95 0
-94 -96 0
-95 -96 0
94 95 96 0
-97 -98 0
-97 -99 0
-98 -99 0
97 98 99 0
-100 -101 0
-100 -102 0
-101 -102 0
100 101 102 0
-103 -104 0
-103 -105 0
-104 -105 0
103 104 105 0
-106 -107 0
-106 -108 0
-107 -108 0
106 107 108 0
-109 -110 0
-109 -111 0
-110 -111 0
109 110 111 0
-112 -113 0
-112 -114 0
-113 -114 0
112 113 114 0
-115 -116 0
-115 -117 0
-116 -117 0
115 116 117 0
-118 -119 0
-118 -120 0
-119 -120 0
118 119 120 0
-121 -122 0
-121 -123 0
-122 -123 0
121 122 123 0
-124 -125 0
-124 -126 0
-125 -126 0
124 125 126 0
-127 -128 0
-127 -129 0
-128 -129 0
127 128 129 0
-130 -131 0
-130 -132 0
-131 -132 0
130 131 132 0
-133 -134 0
-133 -135 0
-134 -135 0
133 134 135 0
-136 -137 0
-136 -138 0
-137 -138 0
136 137 138 0
-139 -140 0
-139 -141 0
-140 -141 0
139 140 141 0
-142 -143 0
-142 -144 0
-143 -144 0
142 143 144 0
-145 -146 0
-145 -147 0
-146 -147 0
145 146 147 0
-148 -149 0
-148 -150 0
-149 -150 0
148 149 150 0
-106 -1 0
-107 -2 0
-108 -3 0
-133 -1 0
-134 -2 0
-135 -3 0
-148 -1 0
-149 -2 0
-150 -3 0
-55 -4 0
-56 -5 0
-57 -6 0
-67 -4 0
-68 -5 0
-69 -6 0
-100 -4 0
-101 -5 0
-102 -6 0
-94 -7 0
-95 -8 0
-96 -9 0
-139 -7 0
-140 -8 0
-141 -9 0
-52 -10 0
-53 -11 0
-54 -12 0
-76 -10 0
-77 -11 0
-78 -12 0
-94 -10 0
-95 -11 0
-96 -12 0
-115 -10 0
-116 -11 0
-117 -12 0
-142 -10 0
-143 -11 0
-144 -12 0
-58 -13 0
-59 -14 0
-60 -15 0
-61 -13 0
-62 -14 0
-63 -15 0
-67 -13 0
-68 -14 0
-69 -15 0
-100 -13 0
-101 -14 0
-102 -15 0
-112 -13 0
-113 -14 0
-114 -15 0
-124 -13 0
-125 -14 0
-126 -15 0
-82 -16 0
-83 -17 0
-84 -18 0
-103 -16 0
-104 -17 0
-105 -18 0
-115 -16 0
-116 -17 0
-117 -18 0
-121 -16 0
-122 -17 0
-123 -18 0
-70 -19 0
-71 -20 0
-72 -21 0
-76 -19 0
-77 -20 0
-78 -21 0
-85 -19 0
-86 -20 0
-87 -21 0
-88 -19 0
-89 -20 0
-90 -21 0
-133 -19 0
-134 -20 0
-135 -21 0
-139 -19 0
-140 -20 0
-141 -21 0
-52 -22 0
-53 -23 0
-54 -24 0
-79 -22 0
-80 -23 0
-81 -24 0
-97 -22 0
-98 -23 0
-99 -24 0
-106 -22 0
-107 -23 0
-108 -24 0
-109 -22 0
-110 -23 0
-111 -24 0
-148 -22 0
-149 -23 0
-150 -24 0
-52 -25 0
-53 -26 0
-54 -27 0
-70 -25 0
-71 -26 0
-72 -27 0
-73 -25 0
-74 -26 0
-75 -27 0
-76 -25 0
-77 -26 0
-78 -27 0
-112 -25 0
-113 -26 0
-114 -27 0
-124 -25 0
-125 -26 0
-126 -27 0
-136 -25 0
-137 -26 0
-138 -27 0
-142 -25 0
-143 -26 0
-144 -27 0
-106 -28 0
-107 -29 0
-108 -30 0
-118 -28 0
-119 -29 0
-120 -30 0
-109 -31 0
-110 -32 0
-111 -33 0
-70 -34 0
-71 -35 0
-72 -36 0
-103 -34 0
-104 -35 0
-105 -36 0
-94 -37 0
-95 -38 0
-96 -39 0
-97 -37 0
-98 -38 0
-99 -39 0
-100 -37 0
-101 -38 0
-102 -39 0
-109 -37 0
-110 -38 0
-111 -39 0
-112 -37 0
-113 -38 0
-114 -39 0
-130 -37 0
-131 -38 0
-132 -39 0
-142 -37 0
-143 -38 0
-144 -39 0
-64 -40 0
-65 -41 0
-66 -42 0
-67 -40 0
-68 -41 0
-69 -42 0
-73 -40 0
-74 -41 0
-75 -42 0
-85 -40 0
-86 -41 0
-87 -42 0
-109 -40 0
-110 -41 0
-111 -42 0
-115 -40 0
-116 -41 0
-117 -42 0
-121 -40 0
-122 -41 0
-123 -42 0
-52 -43 0
-53 -44 0
-54 -45 0
-61 -43 0
-62 -44 0
-63 -45 0
-136 -43 0
-137 -44 0
-138 -45 0
-61 -46 0
-62 -47 0
-63 -48 0
-79 -46 0
-80 -47 0
-81 -48 0
-91 -46 0
-92 -47 0
-93 -48 0
-100 -46 0
-101 -47 0
-102 -48 0
-112 -46 0
-113 -47 0
-114 -48 0
-121 -46 0
-122 -47 0
-123 -48 0
-136 -46 0
-137 -47 0
-138 -48 0
-73 -49 0
-74 -50 0
-75 -51 0
-82 -49 0
-83 -50 0
-84 -51 0
-97 -49 0
-98 -50 0
-99 -51 0
-121 -49 0
-122 -50 0
-123 -51 0
-130 -49 0
-131 -50 0
-132 -51 0
-112 -52 0
-113 -53 0
-114 -54 0
-124 -52 0
-125 -53 0
-126 -54 0
-127 -52 0
-128 -53 0
-129 -54 0
-130 -52 0
-131 -53 0
-132 -54 0
-136 -58 0
-137 -59 0
-138 -60 0
-109 -61 0
-110 -62 0
-111 -63 0
-136 -61 0
-137 -62 0
-138 -63 0
-139 -61 0
-140 -62 0
-141 -63 0
-118 -64 0
-119 -65 0
-120 -66 0
-130 -64 0
-131 -65 0
-132 -66 0
-118 -67 0
-119 -68 0
-120 -69 0
-121 -67 0
-122 -68 0
-123 -69 0
-124 -70 0
-125 -71 0
-126 -72 0
-139 -70 0
-140 -71 0
-141 -72 0
-103 -73 0
-104 -74 0
-105 -75 0
-148 -73 0
-149 -74 0
-150 -75 0
-139 -76 0
-140 -77 0
-141 -78 0
-112 -79 0
-113 -80 0
-114 -81 0
-121 -79 0
-122 -80 0
-123 -81 0
-130 -79 0
-131 -80 0
-132 -81 0
-115 -82 0
-116 -83 0
-117 -84 0
-136 -82 0
-137 -83 0
-138 -84 0
-139 -82 0
-140 -83 0
-141 -84 0
-109 -85 0
-110 -86 0
-111 -87 0
-136 -85 0
-137 -86 0
-138 -87 0
-103 -88 0
-104 -89 0
-105 -90 0
-115 -88 0
-116 -89 0
-117 -90 0
-127 -88 0
-128 -89 0
-129 -90 0
-103 -91 0
-104 -92 0
-105 -93 0
-109 -91 0
-110 -92 0
-111 -93 0
-109 -94 0
-110 -95 0
-111 -96 0
-106 -97 0
-107 -98 0
-108 -99 0
-121 -97 0
-122 -98 0
-123 -99 0
-124 -97 0
-125 -98 0
-126 -99 0
-127 -97 0
-128 -98 0
-129 -99 0
-124 -100 0
-125 -101 0
-126 -102 0
-130 -100 0
-131 -101 0
-132 -102 0
-145 -100 0
-146 -101 0
-147 -102 0
